c SAT problem
p wcnf 95 191
1 -60 -61 0
1 -75 3120 0
1 90 3090 0
1 -105 3090 0
1 -105 -3165 0
1 105 -3135 0
1 -3120 -165 0
1 -3120 60 0
1 3135 60 0
1 -3150 75 0
1 3150 -60 0
1 3165 3150 0
1 -120 -3090 0
1 120 -121 0
1 120 -3135 0
1 135 3105 0
1 135 3060 0
1 -150 -165 0
1 150 3060 0
1 150 -3030 0
1 150 -3135 0
1 -165 -3105 0
1 -165 -3060 0
1 3060 180 0
1 -3075 3076 0
1 -3075 -165 0
1 -3075 135 0
1 3090 -226 0
1 -3090 -181 0
1 3105 -105 0
1 180 181 0
1 -195 3045 0
1 -195 180 0
1 210 -225 0
1 -225 -226 0
1 225 3075 0
1 -225 -3045 0
1 -3000 195 0
1 3000 300 0
1 3000 210 0
1 3000 3001 0
1 -3030 3031 0
1 3030 285 0
1 3045 225 0
1 3045 195 0
1 3045 270 0
1 -3045 -180 0
1 3045 -3030 0
1 -61 3315 0
1 -76 3330 0
1 -91 -3270 0
1 106 3330 0
1 -106 3300 0
1 3315 -166 0
1 3330 -3331 0
1 3330 76 0
1 3330 91 0
1 -121 3300 0
1 151 3210 0
1 151 -3285 0
1 -151 -3165 0
1 -166 3240 0
1 166 -3180 0
1 166 -3285 0
1 3255 -256 0
1 -3270 -256 0
1 3285 151 0
1 3285 -121 0
1 3285 -91 0
1 181 196 0
1 -181 3210 0
1 181 3150 0
1 -181 3090 0
1 -196 3135 0
1 -211 3136 0
1 211 -226 0
1 -211 -210 0
1 -211 -3255 0
1 -226 -3240 0
1 -226 3090 0
1 226 -211 0
1 3180 196 0
1 -3180 -181 0
1 3180 151 0
1 3180 316 0
1 -3195 226 0
1 -3195 3180 0
1 3210 -301 0
1 -3210 241 0
1 -3210 211 0
1 -3225 256 0
1 -3225 -226 0
1 -3225 -196 0
1 3225 -301 0
1 240 3105 0
1 -240 3180 0
1 -255 -3105 0
1 270 -3136 0
1 270 3180 0
1 -270 -3121 0
1 270 -3195 0
1 285 3136 0
1 285 -3166 0
1 -3121 -226 0
1 -3121 -255 0
1 3136 300 0
1 3136 -255 0
1 3151 -3150 0
1 -3151 -376 0
1 3166 226 0
1 -3166 361 0
1 3166 -211 0
1 -3166 -3165 0
1 300 -3015 0
1 -300 3000 0
1 -315 -300 0
1 315 3000 0
1 -330 345 0
1 -330 3061 0
1 330 -3031 0
1 345 -330 0
1 345 -3001 0
1 -3061 -3076 0
1 3061 375 0
1 -3076 -360 0
1 3091 -3106 0
1 -3091 -391 0
1 3091 -285 0
1 -3106 -345 0
1 360 3031 0
1 360 3001 0
1 375 3061 0
1 -375 -376 0
1 -375 -3001 0
1 390 -3016 0
1 390 -405 0
1 -390 3061 0
1 -3016 -3015 0
1 -3031 3030 0
1 3031 375 0
1 3046 390 0
1 -3046 345 0
1 -241 3270 0
1 241 -3210 0
1 256 3331 0
1 256 3270 0
1 -256 3285 0
1 -256 -3255 0
1 271 -3271 0
1 -271 -270 0
1 271 3316 0
1 -271 -3225 0
1 286 3331 0
1 286 -3225 0
1 3301 346 0
1 -3316 301 0
1 3331 3330 0
1 -3346 -256 0
1 3346 -3331 0
1 -3346 3345 0
1 301 -3210 0
1 301 300 0
1 301 -3316 0
1 301 3256 0
1 301 -316 0
1 316 3301 0
1 316 3195 0
1 -316 -3316 0
1 316 3286 0
1 316 -3256 0
1 -331 -3226 0
1 -331 3241 0
1 -331 3181 0
1 346 -3271 0
1 -346 -3181 0
1 3256 -331 0
1 3256 -376 0
1 -3256 -286 0
1 -3271 -3270 0
1 -3271 -301 0
1 3271 -271 0
1 -376 361 0
1 406 3106 0
1 -3181 331 0
1 3181 -376 0
1 3181 -3196 0
1 -3226 -361 0
1 -3226 331 0
1 -3226 -3211 0
1 -3226 3225 0
1 -3226 346 0
